
Gurobi 10.0.1 (win64) logging started Wed May 17 14:19:50 2023

Set parameter LogFile to value "results/log/Fattahi_setup_01.log"
Gurobi Optimizer version 10.0.1 build v10.0.1rc0 (win64)

CPU model: 12th Gen Intel(R) Core(TM) i7-12700, instruction set [SSE2|AVX|AVX2]
Thread count: 12 physical cores, 20 logical processors, using up to 20 threads

Optimize a model with 51 rows, 25 columns and 169 nonzeros
Model fingerprint: 0x492a76e2
Variable types: 0 continuous, 25 integer (16 binary)
Coefficient statistics:
  Matrix range     [1e+00, 7e+04]
  Objective range  [1e+00, 1e+00]
  Bounds range     [1e+00, 1e+00]
  RHS range        [1e+00, 2e+05]
Presolve removed 21 rows and 5 columns
Presolve time: 0.00s
Presolved: 30 rows, 20 columns, 130 nonzeros
Variable types: 0 continuous, 20 integer (12 binary)
Found heuristic solution: objective 148.0000000
Found heuristic solution: objective 134.0000000

Root relaxation: objective 1.150012e+02, 7 iterations, 0.00 seconds (0.00 work units)

    Nodes    |    Current Node    |     Objective Bounds      |     Work
 Expl Unexpl |  Obj  Depth IntInf | Incumbent    BestBd   Gap | It/Node Time

     0     0  115.00123    0    3  134.00000  115.00123  14.2%     -    0s
     0     0     cutoff    0       134.00000  134.00000  0.00%     -    0s

Explored 1 nodes (10 simplex iterations) in 0.00 seconds (0.00 work units)
Thread count was 20 (of 20 available processors)

Solution count 2: 134 148 

Optimal solution found (tolerance 1.00e-04)
Best objective 1.340000000000e+02, best bound 1.340000000000e+02, gap 0.0000%
Warning: variable name "y[job:0, stage:0, machine:1]" has a space
Warning: constraint name "precedence between 1,0 to 0,0 if x_[j,l,h,z,i]=1" has a space
Warning: to let Gurobi read it back, use rlp format
Warning: variable name "y[job:0, stage:0, machine:1]" has a space
Warning: constraint name "precedence between 1,0 to 0,0 if x_[j,l,h,z,i]=1" has a space
Warning: default variable names used to write mps file
Warning: default constraint names used to write mps file
Warning: variable name "y[job:0, stage:0, machine:1]" has a space
Warning: default variable names used to write solution file
